r = [
0,34,78,83,13,42,68,71,56,21,14,0
];
p = [
0,29,16,26,10,27,17,27,16,23,19,0
];
e = [
0,9,1,5,11,20,13,20,14,9,11,0
];
d = [
0,147,176,191,125,149,170,170,155,136,119,194
];
d_bar = [
0,150,178,194,126,152,172,173,157,138,121,194
];
w = [
0,3,0.5,1.666666667,11,6.666666667,6.5,6.666666667,7,4.5,5.5,0
];
